CSW04
Position Depot: Center
Horizon for Depot: Small
Position of customers: Cluster
Distribution of the demand: Small
Width of time windows: Wide
Distribution of the service: Small

VEHICLE 
NUMBER 	 CAPACITY 
 12 	 	 30 
 
CUSTOMER
CUST NO. 	 XCOORD.  	 YCOORD. 	 DEMAND 	 READY TIME 	 DUE DATE 	 SERVICE TIME 
 0 	 	 500 	 	 500 	 	 0 	 	 0 	 	 1888 	 	 0 
  1 	 	 795 	 	 320 	 	 5 	 	 688 	 	 1116 	 	 80 
  2 	 	 932 	 	 154 	 	 5 	 	 1500 	 	 1836 	 	 57 
  3 	 	 75 	 	 364 	 	 10 	 	 903 	 	 1313 	 	 72 
  4 	 	 846 	 	 846 	 	 5 	 	 1344 	 	 1641 	 	 84 
  5 	 	 706 	 	 814 	 	 8 	 	 930 	 	 1241 	 	 92 
  6 	 	 927 	 	 530 	 	 9 	 	 1088 	 	 1482 	 	 57 
  7 	 	 447 	 	 46 	 	 5 	 	 206 	 	 507 	 	 85 
  8 	 	 900 	 	 560 	 	 5 	 	 243 	 	 444 	 	 51 
  9 	 	 785 	 	 247 	 	 6 	 	 1611 	 	 1888 	 	 78 
  10 	 	 722 	 	 737 	 	 6 	 	 1340 	 	 1679 	 	 90 
  11 	 	 440 	 	 48 	 	 9 	 	 1644 	 	 1888 	 	 53 
  12 	 	 59 	 	 310 	 	 6 	 	 1059 	 	 1535 	 	 58 
  13 	 	 740 	 	 283 	 	 5 	 	 1002 	 	 1465 	 	 75 
  14 	 	 838 	 	 472 	 	 7 	 	 865 	 	 1274 	 	 79 
  15 	 	 955 	 	 60 	 	 8 	 	 303 	 	 727 	 	 84 
  16 	 	 763 	 	 322 	 	 8 	 	 1586 	 	 1840 	 	 90 
  17 	 	 394 	 	 159 	 	 6 	 	 700 	 	 1048 	 	 71 
  18 	 	 599 	 	 13 	 	 7 	 	 582 	 	 945 	 	 94 
  19 	 	 741 	 	 249 	 	 9 	 	 534 	 	 885 	 	 78 
  20 	 	 994 	 	 616 	 	 7 	 	 1237 	 	 1669 	 	 93 
  21 	 	 607 	 	 889 	 	 9 	 	 665 	 	 1129 	 	 79 
  22 	 	 197 	 	 319 	 	 5 	 	 168 	 	 388 	 	 61 
  23 	 	 822 	 	 870 	 	 6 	 	 684 	 	 1014 	 	 96 
  24 	 	 924 	 	 539 	 	 10 	 	 1047 	 	 1372 	 	 54 
  25 	 	 837 	 	 328 	 	 6 	 	 132 	 	 416 	 	 55 
  26 	 	 690 	 	 278 	 	 8 	 	 153 	 	 560 	 	 83 
  27 	 	 86 	 	 371 	 	 6 	 	 367 	 	 572 	 	 84 
  28 	 	 959 	 	 519 	 	 6 	 	 1221 	 	 1436 	 	 68 
  29 	 	 868 	 	 859 	 	 10 	 	 786 	 	 1104 	 	 66 
  30 	 	 692 	 	 830 	 	 10 	 	 1435 	 	 1888 	 	 76 
  31 	 	 859 	 	 121 	 	 9 	 	 516 	 	 1004 	 	 86 
  32 	 	 389 	 	 17 	 	 10 	 	 180 	 	 545 	 	 69 
  33 	 	 801 	 	 311 	 	 9 	 	 628 	 	 1054 	 	 51 
  34 	 	 189 	 	 398 	 	 8 	 	 1169 	 	 1519 	 	 63 
  35 	 	 666 	 	 796 	 	 9 	 	 457 	 	 954 	 	 61 
  36 	 	 926 	 	 134 	 	 7 	 	 1338 	 	 1564 	 	 76 
  37 	 	 89 	 	 423 	 	 9 	 	 1223 	 	 1684 	 	 70 
  38 	 	 911 	 	 167 	 	 8 	 	 234 	 	 624 	 	 94 
  39 	 	 453 	 	 39 	 	 8 	 	 1366 	 	 1841 	 	 69 
  40 	 	 912 	 	 535 	 	 10 	 	 842 	 	 1187 	 	 95 
  41 	 	 507 	 	 60 	 	 5 	 	 704 	 	 1009 	 	 69 
  42 	 	 944 	 	 77 	 	 5 	 	 1365 	 	 1733 	 	 97 
  43 	 	 19 	 	 404 	 	 9 	 	 1609 	 	 1846 	 	 85 
  44 	 	 515 	 	 143 	 	 7 	 	 951 	 	 1282 	 	 58 
  45 	 	 850 	 	 880 	 	 6 	 	 279 	 	 568 	 	 71 
  46 	 	 980 	 	 579 	 	 5 	 	 647 	 	 990 	 	 56 
  47 	 	 698 	 	 786 	 	 7 	 	 448 	 	 897 	 	 64 
  48 	 	 895 	 	 380 	 	 7 	 	 917 	 	 1304 	 	 84 
  49 	 	 50 	 	 357 	 	 9 	 	 1064 	 	 1534 	 	 77 
  50 	 	 668 	 	 774 	 	 10 	 	 922 	 	 1368 	 	 89 
 